(set-info :smt-lib-version 2.6)
(set-logic QF_BV)
(set-info :source |
 Patrice Godefroid, SAGE (systematic dynamic test generation)
 For more information: http://research.microsoft.com/en-us/um/people/pg/public_psfiles/ndss2008.pdf
|)
(set-info :category "industrial")
(set-info :status unsat)
(declare-fun T4_28 () (_ BitVec 32))
(declare-fun T4_16 () (_ BitVec 32))
(declare-fun T4_4 () (_ BitVec 32))
(declare-fun T4_92 () (_ BitVec 32))
(declare-fun T4_104 () (_ BitVec 32))
(declare-fun T1_104 () (_ BitVec 8))
(declare-fun T1_105 () (_ BitVec 8))
(declare-fun T1_106 () (_ BitVec 8))
(declare-fun T1_107 () (_ BitVec 8))
(declare-fun T1_92 () (_ BitVec 8))
(declare-fun T1_93 () (_ BitVec 8))
(declare-fun T1_94 () (_ BitVec 8))
(declare-fun T1_95 () (_ BitVec 8))
(declare-fun T1_28 () (_ BitVec 8))
(declare-fun T1_29 () (_ BitVec 8))
(declare-fun T1_30 () (_ BitVec 8))
(declare-fun T1_31 () (_ BitVec 8))
(declare-fun T1_16 () (_ BitVec 8))
(declare-fun T1_17 () (_ BitVec 8))
(declare-fun T1_18 () (_ BitVec 8))
(declare-fun T1_19 () (_ BitVec 8))
(declare-fun T1_4 () (_ BitVec 8))
(declare-fun T1_5 () (_ BitVec 8))
(declare-fun T1_6 () (_ BitVec 8))
(declare-fun T1_7 () (_ BitVec 8))
(assert (let ((?v_4 (bvadd T4_28 (_ bv32 32)))) (let ((?v_44 (bvsub (_ bv65536 32) (bvadd ?v_4 (_ bv40 32))))) (let ((?v_45 (bvsub (_ bv0 32) ((_ zero_extend 24) (ite (bvult ?v_44 (_ bv0 32)) (_ bv1 8) (_ bv0 8))))) (?v_43 (bvadd T4_16 (_ bv19 32))) (?v_38 (bvadd T4_28 (_ bv40 32)))) (let ((?v_42 (bvadd T4_92 ?v_38)) (?v_41 (bvsub (_ bv65536 32) ?v_4)) (?v_40 (bvadd T4_28 (_ bv141164648 32))) (?v_39 (bvadd T4_28 (_ bv141164652 32))) (?v_37 (bvadd T4_92 ?v_4))) (let ((?v_36 (bvadd ?v_37 (_ bv7 32))) (?v_34 (bvadd ?v_4 (_ bv20 32)))) (let ((?v_35 (bvadd T4_104 ?v_34)) (?v_33 (bvsub (_ bv65536 32) (bvadd ?v_4 (_ bv12 32)))) (?v_32 (bvsub (_ bv65536 32) (bvadd ?v_4 (_ bv16 32)))) (?v_31 (bvsub (_ bv65536 32) ?v_34)) (?v_30 (bvsub (_ bv65536 32) (bvadd ?v_4 (_ bv24 32)))) (?v_29 (bvsub (_ bv65536 32) (bvadd ?v_4 (_ bv28 32)))) (?v_28 (bvsub (_ bv65536 32) (bvadd ?v_4 (_ bv32 32)))) (?v_27 (bvsub (_ bv65536 32) (bvadd ?v_4 (_ bv34 32)))) (?v_26 (bvsub (_ bv65536 32) (bvadd ?v_4 (_ bv36 32)))) (?v_25 (bvsub (_ bv65536 32) (bvadd T4_28 (_ bv36 32)))) (?v_24 (bvsub (_ bv65536 32) ?v_38)) (?v_23 (bvult (_ bv4 32) T4_4)) (?v_21 (bvsub (_ bv0 32) ((_ zero_extend 24) (ite (bvult ?v_41 (_ bv0 32)) (_ bv1 8) (_ bv0 8)))))) (let ((?v_22 (bvule ?v_21 (_ bv0 32))) (?v_19 (bvsub (_ bv0 32) ((_ zero_extend 24) (ite (bvult ?v_33 (_ bv0 32)) (_ bv1 8) (_ bv0 8)))))) (let ((?v_20 (bvule ?v_19 (_ bv0 32))) (?v_17 (bvsub (_ bv0 32) ((_ zero_extend 24) (ite (bvult ?v_32 (_ bv0 32)) (_ bv1 8) (_ bv0 8)))))) (let ((?v_18 (bvule ?v_17 (_ bv0 32))) (?v_15 (bvsub (_ bv0 32) ((_ zero_extend 24) (ite (bvult ?v_31 (_ bv0 32)) (_ bv1 8) (_ bv0 8)))))) (let ((?v_16 (bvule ?v_15 (_ bv0 32))) (?v_13 (bvsub (_ bv0 32) ((_ zero_extend 24) (ite (bvult ?v_30 (_ bv0 32)) (_ bv1 8) (_ bv0 8)))))) (let ((?v_14 (bvule ?v_13 (_ bv0 32))) (?v_11 (bvsub (_ bv0 32) ((_ zero_extend 24) (ite (bvult ?v_29 (_ bv0 32)) (_ bv1 8) (_ bv0 8)))))) (let ((?v_12 (bvule ?v_11 (_ bv0 32))) (?v_9 (bvsub (_ bv0 32) ((_ zero_extend 24) (ite (bvult ?v_28 (_ bv0 32)) (_ bv1 8) (_ bv0 8)))))) (let ((?v_10 (bvule ?v_9 (_ bv0 32))) (?v_7 (bvsub (_ bv0 32) ((_ zero_extend 24) (ite (bvult ?v_27 (_ bv0 32)) (_ bv1 8) (_ bv0 8)))))) (let ((?v_8 (bvule ?v_7 (_ bv0 32))) (?v_5 (bvsub (_ bv0 32) ((_ zero_extend 24) (ite (bvult ?v_26 (_ bv0 32)) (_ bv1 8) (_ bv0 8)))))) (let ((?v_6 (bvule ?v_5 (_ bv0 32))) (?v_2 (bvsub (_ bv0 32) ((_ zero_extend 24) (ite (bvult ?v_25 (_ bv0 32)) (_ bv1 8) (_ bv0 8)))))) (let ((?v_3 (bvule ?v_2 (_ bv0 32))) (?v_0 (bvsub (_ bv0 32) ((_ zero_extend 24) (ite (bvult ?v_24 (_ bv0 32)) (_ bv1 8) (_ bv0 8)))))) (let ((?v_1 (bvule ?v_0 (_ bv0 32)))) (and true (= T4_4 (bvor (bvshl (bvor (bvshl (bvor (bvshl ((_ zero_extend 24) T1_7) (_ bv8 32)) ((_ zero_extend 24) T1_6)) (_ bv8 32)) ((_ zero_extend 24) T1_5)) (_ bv8 32)) ((_ zero_extend 24) T1_4))) (= T4_16 (bvor (bvshl (bvor (bvshl (bvor (bvshl ((_ zero_extend 24) T1_19) (_ bv8 32)) ((_ zero_extend 24) T1_18)) (_ bv8 32)) ((_ zero_extend 24) T1_17)) (_ bv8 32)) ((_ zero_extend 24) T1_16))) (= T4_28 (bvor (bvshl (bvor (bvshl (bvor (bvshl ((_ zero_extend 24) T1_31) (_ bv8 32)) ((_ zero_extend 24) T1_30)) (_ bv8 32)) ((_ zero_extend 24) T1_29)) (_ bv8 32)) ((_ zero_extend 24) T1_28))) (= T4_92 (bvor (bvshl (bvor (bvshl (bvor (bvshl ((_ zero_extend 24) T1_95) (_ bv8 32)) ((_ zero_extend 24) T1_94)) (_ bv8 32)) ((_ zero_extend 24) T1_93)) (_ bv8 32)) ((_ zero_extend 24) T1_92))) (= T4_104 (bvor (bvshl (bvor (bvshl (bvor (bvshl ((_ zero_extend 24) T1_107) (_ bv8 32)) ((_ zero_extend 24) T1_106)) (_ bv8 32)) ((_ zero_extend 24) T1_105)) (_ bv8 32)) ((_ zero_extend 24) T1_104))) (bvult (_ bv0 32) ?v_45) ?v_1 (bvule (_ bv0 32) ?v_0) ?v_1 ?v_3 (bvule (_ bv0 32) ?v_2) ?v_3 ?v_6 (bvule (_ bv0 32) ?v_5) ?v_6 ?v_8 (bvule (_ bv0 32) ?v_7) ?v_8 ?v_10 (bvule (_ bv0 32) ?v_9) ?v_10 ?v_12 (bvule (_ bv0 32) ?v_11) ?v_12 ?v_14 (bvule (_ bv0 32) ?v_13) ?v_14 ?v_16 (bvule (_ bv0 32) ?v_15) ?v_16 ?v_18 (bvule (_ bv0 32) ?v_17) ?v_18 ?v_20 (bvule (_ bv0 32) ?v_19) ?v_20 (bvule (bvadd T4_4 (_ bv8 32)) (_ bv573440 32)) (bvult (_ bv1 32) (bvsub (_ bv4294967295 32) ((_ zero_extend 24) (ite (bvult (bvsub (_ bv4294967295 32) ?v_4) (_ bv0 32)) (_ bv1 8) (_ bv0 8))))) ?v_22 (bvule (_ bv0 32) ?v_21) ?v_22 ?v_23 (not (= T4_4 (_ bv0 32))) ?v_23 (bvule (bvadd T4_16 (_ bv20 32)) (_ bv573440 32)) (bvult (_ bv4 32) ?v_24) (bvule (_ bv4 32) ?v_24) (not (= ?v_24 (_ bv0 32))) (bvult ?v_24 (_ bv200000000 32)) (bvult (_ bv4 32) ?v_25) (bvule (_ bv4 32) ?v_25) (not (= ?v_25 (_ bv0 32))) (bvult ?v_25 (_ bv200000000 32)) (bvult (_ bv4 32) ?v_26) (bvule (_ bv4 32) ?v_26) (not (= ?v_26 (_ bv0 32))) (bvult ?v_26 (_ bv200000000 32)) (bvult (_ bv2 32) ?v_27) (bvule (_ bv2 32) ?v_27) (not (= ?v_27 (_ bv0 32))) (bvult ?v_27 (_ bv200000000 32)) (bvult (_ bv2 32) ?v_28) (bvule (_ bv2 32) ?v_28) (not (= ?v_28 (_ bv0 32))) (bvult ?v_28 (_ bv200000000 32)) (bvult (_ bv4 32) ?v_29) (bvule (_ bv4 32) ?v_29) (not (= ?v_29 (_ bv0 32))) (bvult ?v_29 (_ bv200000000 32)) (bvult (_ bv4 32) ?v_30) (bvule (_ bv4 32) ?v_30) (not (= ?v_30 (_ bv0 32))) (bvult ?v_30 (_ bv200000000 32)) (bvult (_ bv4 32) ?v_31) (bvule (_ bv4 32) ?v_31) (not (= ?v_31 (_ bv0 32))) (bvult ?v_31 (_ bv200000000 32)) (= T4_104 (_ bv56 32)) (not (= T4_104 (_ bv0 32))) (bvult (_ bv4 32) ?v_32) (bvule (_ bv4 32) ?v_32) (not (= ?v_32 (_ bv0 32))) (bvult ?v_32 (_ bv200000000 32)) (bvult (_ bv4 32) ?v_33) (bvule (_ bv4 32) ?v_33) (not (= ?v_33 (_ bv0 32))) (bvult ?v_33 (_ bv200000000 32)) (bvule ?v_35 ?v_36) (bvule (bvadd ?v_35 (_ bv4294967295 32)) ?v_36) (bvule (bvadd ?v_37 (_ bv8 32)) (_ bv573440 32)) (bvult (_ bv4 32) T4_16) (bvule T4_16 (_ bv65516 32)) (not (= T4_16 (_ bv0 32))) (bvule (_ bv139327844 32) (bvadd T4_28 (_ bv141164656 32))) (bvule ?v_38 (_ bv65536 32)) (bvult ?v_38 (_ bv65536 32)) (bvule (_ bv139327764 32) ?v_39) (bvule (_ bv139327852 32) ?v_39) (bvule (_ bv139327792 32) ?v_40) (bvule (_ bv139327880 32) ?v_40) (bvule (_ bv139327796 32) (bvadd ?v_4 (_ bv141164644 32))) (bvule (_ bv4817124 32) (bvadd ?v_4 (_ bv141164640 32))) (bvule (_ bv139327932 32) (bvadd ?v_4 (_ bv141164636 32))) (bvule (_ bv139327724 32) (bvadd ?v_4 (_ bv141164632 32))) (bvule (_ bv139327752 32) (bvadd ?v_4 (_ bv141164628 32))) (bvult (_ bv4 32) T4_92) (not (= T4_92 (_ bv0 32))) (bvult (_ bv4 32) ?v_41) (bvule (_ bv4 32) ?v_41) (not (= ?v_41 (_ bv0 32))) (bvult ?v_41 (_ bv200000000 32)) (bvult ?v_43 ?v_42) (bvule (bvadd ?v_42 (_ bv4294967295 32)) ?v_43) (bvule (bvadd T4_28 (_ bv31 32)) ?v_43) (bvule ?v_43 (bvadd T4_4 (_ bv7 32))) (= T4_28 (_ bv56 32)) (not (= T4_28 (_ bv0 32))) (bvult ?v_4 (_ bv65536 32)) (bvult (_ bv0 32) ?v_4) (bvule (_ bv0 32) ?v_4) (bvule ?v_4 ?v_43) (bvule (_ bv4 32) ?v_44) (not (= ?v_44 (_ bv0 32))) (bvult ?v_44 (_ bv200000000 32)) (bvule (_ bv0 32) ?v_45) (bvule ?v_45 (_ bv0 32)))))))))))))))))))))
(check-sat)
(exit)
